30
74
5
36
54
95
86
1
0 1
0 12
0 13
0 25
1 3
1 13
1 27
2 5
2 9
2 10
2 11
2 21
2 23
2 25
2 26
3 4
3 13
3 16
3 17
3 26
3 28
4 8
4 10
4 11
4 19
4 20
4 21
4 22
4 25
5 22
6 19
6 20
6 23
7 15
7 20
7 28
8 27
8 28
8 29
9 10
9 13
9 15
9 20
9 27
10 19
10 22
11 12
11 27
12 17
12 20
12 24
14 29
15 26
15 28
16 22
16 26
17 18
17 23
17 29
18 22
18 28
19 24
19 26
19 27
20 23
20 26
20 29
21 24
21 25
22 25
24 29
25 26
26 28
26 29
0 24 2 27 15 8
11 17 14 9 23 26
10 4 5 25 12 3
1 16 13 22 21 28
7 20 19 18 29 6
